100 10
608 285
156 708
498 33
522 547
632 546
848 384
492 718
327 687
467 638
221 483
504 277
432 284
745 413
188 430
538 385
146 168
523 21
603 789
805 427
296 681
817 459
631 355
685 701
315 677
365 430
251 682
507 536
369 889
833 478
383 95
750 184
109 399
852 565
411 699
562 565
617 503
678 467
545 375
105 136
313 760
183 307
263 435
329 746
60 547
360 727
262 382
456 753
290 472
372 504
595 478
339 494
524 590
241 563
113 516
816 575
398 539
110 79
434 805
654 574
835 477
87 797
404 539
772 654
428 309
599 615
704 112
799 520
550 390
554 791
117 410
497 32
377 334
549 377
263 790
66 360
308 620
765 451
267 643
203 605
535 494
673 250
315 685
135 109
796 636
387 388
98 698
186 549
518 401
330 714
303 519
443 574
242 404
376 717
216 418
195 806
580 582
119 459
461 560
348 645
526 709
